Normalized Data/p01_5_normalized_splitx10_0.vrp
NAME:p01_5_NORMALIZED_splitx10_
BEST_KNOWN: 0
COMMENT: 0
DIMENSION: 191
CAPACITY: 1000
EDGE_WEIGHT_FORMAT: FUNCTION
EDGE_WEIGHT_TYPE: EXACT_2D
NODE_COORD_SECTION
1 0.00000 0.00000
2 -49 -21
3 -49 -21
4 49 23
5 49 23
6 49 23
7 49 23
8 49 23
9 -43 -46
10 -43 -46
11 -43 -46
12 -43 -46
13 -12 -45
14 -12 -45
15 -12 -45
16 -12 -45
17 -12 -45
18 41 -1
19 41 -1
20 -46 -6
21 -46 -6
22 -46 -6
23 -46 -6
24 -13 24
25 -13 24
26 -13 24
27 -13 24
28 -11 -2
29 -11 -2
30 -33 -2
31 -33 -2
32 -33 -2
33 11 14
34 11 14
35 11 14
36 11 14
37 11 14
38 11 14
39 43 -8
40 43 -8
41 -50 12
42 -50 12
43 -50 12
44 31 49
45 31 49
46 31 49
47 31 49
48 31 49
49 31 49
50 -9 -2
51 -9 -2
52 -9 -2
53 -9 -2
54 -12 -26
55 -12 -26
56 -12 -26
57 -12 -26
58 -12 -26
59 9 -50
60 9 -50
61 9 -50
62 9 -50
63 9 -50
64 9 -50
65 -26 -46
66 -26 -46
67 -26 -46
68 -26 -46
69 -26 -46
70 -26 -46
71 29 25
72 29 25
73 29 25
74 29 25
75 29 25
76 -20 6
77 -5 -5
78 -5 -5
79 -10 -50
80 -10 -50
81 -15 43
82 -15 43
83 -15 43
84 -15 43
85 -17 19
86 -17 19
87 -17 19
88 -17 19
89 -33 -33
90 -33 -33
91 -33 -33
92 -33 -33
93 -33 -33
94 -44 -33
95 -44 -33
96 -44 -33
97 -44 -33
98 -44 -33
99 -44 -33
100 -30 -45
101 -30 -45
102 -30 -45
103 -30 -45
104 -30 -45
105 -30 -45
106 23 -2
107 23 -2
108 23 -2
109 23 -2
110 23 -2
111 -19 -47
112 28 -38
113 28 -38
114 28 -38
115 -45 -46
116 -45 -46
117 -45 -46
118 -24 22
119 -24 22
120 -24 22
121 -24 22
122 -34 30
123 -34 30
124 -34 30
125 -34 30
126 -34 30
127 31 -21
128 31 -21
129 31 -21
130 23 -40
131 23 -40
132 23 -40
133 23 -40
134 6 -48
135 6 -48
136 21 -46
137 21 -46
138 21 -46
139 21 -46
140 21 -46
141 47 47
142 47 47
143 17 8
144 17 8
145 17 8
146 -28 4
147 -28 4
148 -9 18
149 -9 18
150 -9 18
151 23 -17
152 23 -17
153 23 -17
154 23 -17
155 -38 -36
156 -38 -36
157 -38 -36
158 -38 -36
159 -38 -36
160 -38 -36
161 -27 -16
162 -27 -16
163 -27 -16
164 -27 -16
165 -27 -16
166 19 -12
167 19 -12
168 19 -12
169 19 -12
170 34 8
171 34 8
172 34 8
173 34 8
174 33 -21
175 33 -21
176 -36 -47
177 -16 49
178 -16 49
179 -16 49
180 -16 49
181 -31 -6
182 -31 -6
183 -31 -6
184 -31 -6
185 -31 -6
186 -29 -27
187 -29 -27
188 -29 -27
189 -29 -27
190 -29 -27
191 -29 -27
DEMAND_SECTION
1 0
2 200
3 10
4 200
5 50
6 10
7 10
8 10
9 200
10 10
11 10
12 10
13 200
14 200
15 50
16 10
17 10
18 200
19 200
20 200
21 200
22 50
23 10
24 200
25 100
26 50
27 10
28 200
29 200
30 200
31 10
32 10
33 200
34 100
35 50
36 10
37 10
38 10
39 200
40 100
41 200
42 200
43 50
44 200
45 200
46 50
47 10
48 10
49 10
50 200
51 100
52 10
53 10
54 200
55 50
56 10
57 10
58 10
59 200
60 100
61 10
62 10
63 10
64 10
65 200
66 200
67 10
68 10
69 10
70 10
71 200
72 100
73 10
74 10
75 10
76 200
77 200
78 200
79 200
80 200
81 200
82 100
83 50
84 10
85 200
86 200
87 50
88 10
89 200
90 50
91 10
92 10
93 10
94 200
95 50
96 10
97 10
98 10
99 10
100 100
101 50
102 10
103 10
104 10
105 10
106 100
107 50
108 10
109 10
110 10
111 200
112 200
113 100
114 10
115 200
116 100
117 50
118 200
119 10
120 10
121 10
122 200
123 100
124 10
125 10
126 10
127 100
128 10
129 10
130 200
131 100
132 10
133 10
134 200
135 100
136 100
137 50
138 10
139 10
140 10
141 200
142 100
143 100
144 50
145 10
146 200
147 200
148 200
149 200
150 50
151 200
152 200
153 50
154 10
155 200
156 200
157 50
158 10
159 10
160 10
161 200
162 100
163 10
164 10
165 10
166 100
167 10
168 10
169 10
170 200
171 10
172 10
173 10
174 200
175 200
176 200
177 200
178 200
179 50
180 10
181 100
182 50
183 10
184 10
185 10
186 200
187 200
188 50
189 10
190 10
191 10
DEPOT_SECTION
1
-1
EOF