Normalized Data/p01_5_normalized_splitx10_0.sol
190 -1 2 94 97 95 96 98 93 154 157 156 158 159 155 -13 15 16 14 12 78 79 -25 26 24 83 81 80 82 179 178 177 176 -30 31 21 19 22 20 41 40 42 -32 23 122 124 123 125 121 118 120 119 117 -33 37 36 35 34 48 45 43 44 46 47 141 140 74 72 73 -38 39 17 18 105 106 109 107 108 -50 49 52 51 28 27 77 -55 56 54 57 53 134 133 59 60 62 61 58 63 -71 70 5 3 4 7 6 171 172 169 170 142 144 143 -75 145 146 29 183 181 182 184 180 -76 185 186 161 163 162 160 164 -85 86 87 84 147 149 148 -101 103 99 104 102 100 175 8 11 10 9 114 115 116 -110 69 65 64 66 67 68 88 91 90 89 92 190 187 189 188 -135 137 139 138 136 132 130 129 131 112 111 113 165 167 166 168 -150 153 151 152 127 128 126 173 174 0 





OBJ=
1697.792
BEST_KNOWN=
0.000